L=18;
no=6;
njo=[8,7,6,7,8,8];
djo=[8,9,7,9,8,7];
trab=[6,3,2,6,3,6,18,2,6,18,6,2,6,3,6,4,2,4,3,3,2,2,3,2,3,3,6,3,3,3,6,3,3,6,3,3,3,12,3,4,3,12,6,3,6,2,6,12];
nprec=5;
prec=[| 1, 9,
      | 4, 10,
      | 18, 28,
      | 34, 37,
      | 36, 41 |];


%%%%%%%%%%%%%%%%%%%%%%%%%%%%%%%%%%%%%%%%%%%%%%%%%%%%%%%%%%%%%%%%%%%%%%
%  6
%
%  8   1   8   8  46
%  6   3   2   6   3   6  18   2 
%  1   1   1   0   1
%      2   1   9
%  1   2   2   0   0
%  1   3   3   0   0
%  1   4   4   0   1
%      2   2  10
%  1   5   5   0   0
%  1   6   6   0   0
%  1   7   7   0   0
%  1   8   8   0   0
%
%  7   9  15   9  53
%  6  18   6   2   6   3   6   4   2 
%  2   1   9   1   0
%      1   1   1
%  2   2  10   1   0
%      1   4   4
%  2   3  11   0   0
%  2   4  12   0   0
%  2   5  13   0   0
%  2   6  14   0   0
%  2   7  15   0   0
%
%  6  16  21   7  19
%  4   3   3   2   2   3   2 
%  3   1  16   0   0
%  3   2  17   0   0
%  3   3  18   0   1
%      4   7  28
%  3   4  19   0   0
%  3   5  20   0   0
%  3   6  21   0   0
%
%  7  22  28   9  33
%  3   3   6   3   3   3   6   3   3 
%  4   1  22   0   0
%  4   2  23   0   0
%  4   3  24   0   0
%  4   4  25   0   0
%  4   5  26   0   0
%  4   6  27   0   0
%  4   7  28   1   0
%      3   3  18
%
%  8  29  36   8  37
%  6   3   3   3  12   3   4   3 
%  5   1  29   0   0
%  5   2  30   0   0
%  5   3  31   0   0
%  5   4  32   0   0
%  5   5  33   0   0
%  5   6  34   0   1
%      6   1  37
%  5   7  35   0   0
%  5   8  36   0   1
%      6   5  41
%
%  8  37  44   7  47
% 12   6   3   6   2   6  12 
%  6   1  37   1   0
%      5   6  34
%  6   2  38   0   0
%  6   3  39   0   0
%  6   4  40   0   0
%  6   5  41   1   0
%      5   8  36
%  6   6  42   0   0
%  6   7  43   0   0
%  6   8  44   0   0
%
%104
